p cnf 215 945
132 202 0
110 115 121 0
94 107 167 0
88 96 136 158 0
85 101 137 205 0
139 142 143 150 0
147 153 185 198 0
104 159 182 188 0
98 130 190 0
82 87 113 0
79 89 90 103 131 135 0
95 116 118 0
77 80 84 112 0
73 75 106 109 0
69 71 92 124 0
68 129 140 0
114 162 163 0
108 166 168 0
169 170 171 0
78 157 0
74 173 174 176 0
177 178 209 0
126 138 145 180 0
105 154 160 183 0
99 134 189 191 192 0
194 195 0
91 133 0
119 196 0
184 197 200 0
100 193 0
123 201 203 0
172 204 0
81 206 0
76 175 207 0
93 179 208 0
125 128 210 212 0
144 148 151 213 0
152 156 161 186 199 215 0
62 64 66 67 0
58 60 61 0
56 57 117 0
55 83 111 0
54 72 0
-53 -139 0
-53 -147 0
-53 -159 0
-53 -190 0
-52 -53 0
-139 -147 0
-139 -159 0
-139 -190 0
-52 -139 0
-147 -159 0
-147 -190 0
-52 -147 0
-159 -190 0
-52 -159 0
-52 -190 0
-50 -131 0
-50 -95 0
-50 -84 0
-50 -75 0
-48 -50 0
-95 -131 0
-84 -131 0
-75 -131 0
-48 -131 0
-84 -95 0
-75 -95 0
-48 -95 0
-75 -84 0
-48 -84 0
-48 -75 0
-46 -47 0
-47 -122 0
-47 -114 0
-47 -166 0
-47 -157 0
-46 -122 0
-46 -114 0
-46 -166 0
-46 -157 0
-114 -122 0
-122 -166 0
-122 -157 0
-114 -166 0
-114 -157 0
-157 -166 0
-173 -178 0
-126 -173 0
-141 -173 0
-154 -173 0
-86 -173 0
-126 -178 0
-141 -178 0
-154 -178 0
-86 -178 0
-126 -141 0
-126 -154 0
-86 -126 0
-141 -154 0
-86 -141 0
-86 -154 0
-44 -59 0
-43 -44 0
-44 -91 0
-44 -119 0
-44 -70 0
-43 -59 0
-59 -91 0
-59 -119 0
-59 -70 0
-43 -91 0
-43 -119 0
-43 -70 0
-91 -119 0
-70 -91 0
-70 -119 0
-41 -67 0
-61 -67 0
-40 -67 0
-39 -67 0
-54 -67 0
-41 -61 0
-40 -41 0
-39 -41 0
-41 -54 0
-40 -61 0
-39 -61 0
-54 -61 0
-39 -40 0
-40 -54 0
-39 -54 0
-50 -53 0
-47 -53 0
-53 -173 0
-44 -53 0
-53 -67 0
-47 -50 0
-50 -173 0
-44 -50 0
-50 -67 0
-47 -173 0
-44 -47 0
-47 -67 0
-44 -173 0
-67 -173 0
-44 -67 0
-131 -139 0
-46 -139 0
-139 -178 0
-59 -139 0
-41 -139 0
-46 -131 0
-131 -178 0
-59 -131 0
-41 -131 0
-46 -178 0
-46 -59 0
-41 -46 0
-59 -178 0
-41 -178 0
-41 -59 0
-95 -147 0
-122 -147 0
-126 -147 0
-43 -147 0
-61 -147 0
-95 -122 0
-95 -126 0
-43 -95 0
-61 -95 0
-122 -126 0
-43 -122 0
-61 -122 0
-43 -126 0
-61 -126 0
-43 -61 0
-84 -159 0
-114 -159 0
-141 -159 0
-91 -159 0
-40 -159 0
-84 -114 0
-84 -141 0
-84 -91 0
-40 -84 0
-114 -141 0
-91 -114 0
-40 -114 0
-91 -141 0
-40 -141 0
-40 -91 0
-75 -190 0
-166 -190 0
-154 -190 0
-119 -190 0
-39 -190 0
-75 -166 0
-75 -154 0
-75 -119 0
-39 -75 0
-154 -166 0
-119 -166 0
-39 -166 0
-119 -154 0
-39 -154 0
-39 -119 0
-48 -52 0
-52 -157 0
-52 -86 0
-52 -70 0
-52 -54 0
-48 -157 0
-48 -86 0
-48 -70 0
-48 -54 0
-86 -157 0
-70 -157 0
-54 -157 0
-70 -86 0
-54 -86 0
-54 -70 0
-121 -132 0
-132 -167 0
-101 -132 0
-121 -167 0
-101 -121 0
-101 -167 0
-127 -143 0
-127 -182 0
-38 -127 0
-143 -182 0
-38 -143 0
-38 -182 0
-37 -103 0
-37 -112 0
-37 -140 0
-103 -112 0
-103 -140 0
-112 -140 0
-51 -66 0
-49 -66 0
-66 -83 0
-49 -51 0
-51 -83 0
-49 -83 0
-127 -132 0
-37 -132 0
-66 -132 0
-37 -127 0
-66 -127 0
-37 -66 0
-121 -143 0
-103 -121 0
-51 -121 0
-103 -143 0
-51 -143 0
-51 -103 0
-167 -182 0
-112 -167 0
-49 -167 0
-112 -182 0
-49 -182 0
-49 -112 0
-38 -101 0
-101 -140 0
-83 -101 0
-38 -140 0
-38 -83 0
-83 -140 0
-35 -107 0
-107 -136 0
-107 -137 0
-35 -136 0
-35 -137 0
-136 -137 0
-34 -160 0
-34 -134 0
-34 -194 0
-134 -160 0
-160 -194 0
-134 -194 0
-128 -144 0
-128 -156 0
-128 -181 0
-144 -156 0
-144 -181 0
-156 -181 0
-36 -102 0
-36 -57 0
-36 -111 0
-57 -102 0
-102 -111 0
-57 -111 0
-34 -107 0
-107 -128 0
-36 -107 0
-34 -128 0
-34 -36 0
-36 -128 0
-35 -160 0
-35 -144 0
-35 -102 0
-144 -160 0
-102 -160 0
-102 -144 0
-134 -136 0
-136 -156 0
-57 -136 0
-134 -156 0
-57 -134 0
-57 -156 0
-137 -194 0
-137 -181 0
-111 -137 0
-181 -194 0
-111 -194 0
-111 -181 0
-80 -135 0
-92 -135 0
-80 -92 0
-149 -177 0
-177 -189 0
-149 -189 0
-76 -210 0
-76 -215 0
-210 -215 0
-135 -177 0
-76 -135 0
-76 -177 0
-80 -149 0
-80 -210 0
-149 -210 0
-92 -189 0
-92 -215 0
-189 -215 0
-115 -165 0
-33 -115 0
-115 -158 0
-115 -205 0
-33 -165 0
-158 -165 0
-165 -205 0
-33 -158 0
-33 -205 0
-158 -205 0
-142 -153 0
-98 -142 0
-87 -142 0
-63 -142 0
-98 -153 0
-87 -153 0
-63 -153 0
-87 -98 0
-63 -98 0
-63 -87 0
-90 -118 0
-73 -90 0
-71 -90 0
-68 -90 0
-73 -118 0
-71 -118 0
-68 -118 0
-71 -73 0
-68 -73 0
-68 -71 0
-30 -31 0
-31 -108 0
-31 -169 0
-29 -31 0
-30 -108 0
-30 -169 0
-29 -30 0
-108 -169 0
-29 -108 0
-29 -169 0
-207 -208 0
-148 -207 0
-161 -207 0
-27 -207 0
-148 -208 0
-161 -208 0
-27 -208 0
-148 -161 0
-27 -148 0
-27 -161 0
-115 -142 0
-90 -115 0
-31 -115 0
-115 -207 0
-90 -142 0
-31 -142 0
-142 -207 0
-31 -90 0
-90 -207 0
-31 -207 0
-153 -165 0
-118 -165 0
-30 -165 0
-165 -208 0
-118 -153 0
-30 -153 0
-153 -208 0
-30 -118 0
-118 -208 0
-30 -208 0
-33 -98 0
-33 -73 0
-33 -108 0
-33 -148 0
-73 -98 0
-98 -108 0
-98 -148 0
-73 -108 0
-73 -148 0
-108 -148 0
-87 -158 0
-71 -158 0
-158 -169 0
-158 -161 0
-71 -87 0
-87 -169 0
-87 -161 0
-71 -169 0
-71 -161 0
-161 -169 0
-63 -205 0
-68 -205 0
-29 -205 0
-27 -205 0
-63 -68 0
-29 -63 0
-27 -63 0
-29 -68 0
-27 -68 0
-27 -29 0
-198 -211 0
-104 -211 0
-113 -211 0
-26 -211 0
-25 -211 0
-104 -198 0
-113 -198 0
-26 -198 0
-25 -198 0
-104 -113 0
-26 -104 0
-25 -104 0
-26 -113 0
-25 -113 0
-25 -26 0
-23 -24 0
-24 -162 0
-24 -170 0
-22 -24 0
-24 -78 0
-23 -162 0
-23 -170 0
-22 -23 0
-23 -78 0
-162 -170 0
-22 -162 0
-78 -162 0
-22 -170 0
-78 -170 0
-22 -78 0
-74 -138 0
-74 -146 0
-74 -191 0
-74 -195 0
-65 -74 0
-138 -146 0
-138 -191 0
-138 -195 0
-65 -138 0
-146 -191 0
-146 -195 0
-65 -146 0
-191 -195 0
-65 -191 0
-65 -195 0
-45 -197 0
-123 -197 0
-164 -197 0
-197 -204 0
-32 -197 0
-45 -123 0
-45 -164 0
-45 -204 0
-32 -45 0
-123 -164 0
-123 -204 0
-32 -123 0
-164 -204 0
-32 -164 0
-32 -204 0
-179 -206 0
-125 -206 0
-152 -206 0
-21 -206 0
-97 -206 0
-125 -179 0
-152 -179 0
-21 -179 0
-97 -179 0
-125 -152 0
-21 -125 0
-97 -125 0
-21 -152 0
-97 -152 0
-21 -97 0
-60 -64 0
-42 -64 0
-64 -117 0
-55 -64 0
-64 -72 0
-42 -60 0
-60 -117 0
-55 -60 0
-60 -72 0
-42 -117 0
-42 -55 0
-42 -72 0
-55 -117 0
-72 -117 0
-55 -72 0
-24 -211 0
-74 -211 0
-197 -211 0
-206 -211 0
-64 -211 0
-24 -74 0
-24 -197 0
-24 -206 0
-24 -64 0
-74 -197 0
-74 -206 0
-64 -74 0
-197 -206 0
-64 -197 0
-64 -206 0
-23 -198 0
-138 -198 0
-45 -198 0
-179 -198 0
-60 -198 0
-23 -138 0
-23 -45 0
-23 -179 0
-23 -60 0
-45 -138 0
-138 -179 0
-60 -138 0
-45 -179 0
-45 -60 0
-60 -179 0
-104 -162 0
-104 -146 0
-104 -123 0
-104 -125 0
-42 -104 0
-146 -162 0
-123 -162 0
-125 -162 0
-42 -162 0
-123 -146 0
-125 -146 0
-42 -146 0
-123 -125 0
-42 -123 0
-42 -125 0
-113 -170 0
-113 -191 0
-113 -164 0
-113 -152 0
-113 -117 0
-170 -191 0
-164 -170 0
-152 -170 0
-117 -170 0
-164 -191 0
-152 -191 0
-117 -191 0
-152 -164 0
-117 -164 0
-117 -152 0
-22 -26 0
-26 -195 0
-26 -204 0
-21 -26 0
-26 -55 0
-22 -195 0
-22 -204 0
-21 -22 0
-22 -55 0
-195 -204 0
-21 -195 0
-55 -195 0
-21 -204 0
-55 -204 0
-21 -55 0
-25 -78 0
-25 -65 0
-25 -32 0
-25 -97 0
-25 -72 0
-65 -78 0
-32 -78 0
-78 -97 0
-72 -78 0
-32 -65 0
-65 -97 0
-65 -72 0
-32 -97 0
-32 -72 0
-72 -97 0
-20 -202 0
-94 -202 0
-18 -202 0
-88 -202 0
-20 -94 0
-18 -20 0
-20 -88 0
-18 -94 0
-88 -94 0
-18 -88 0
-17 -120 0
-17 -163 0
-17 -168 0
-17 -171 0
-120 -163 0
-120 -168 0
-120 -171 0
-163 -168 0
-163 -171 0
-168 -171 0
-145 -174 0
-155 -174 0
-174 -183 0
-99 -174 0
-145 -155 0
-145 -183 0
-99 -145 0
-155 -183 0
-99 -155 0
-99 -183 0
-16 -200 0
-200 -201 0
-15 -200 0
-14 -200 0
-16 -201 0
-15 -16 0
-14 -16 0
-15 -201 0
-14 -201 0
-14 -15 0
-81 -93 0
-81 -212 0
-81 -213 0
-81 -199 0
-93 -212 0
-93 -213 0
-93 -199 0
-212 -213 0
-199 -212 0
-199 -213 0
-17 -202 0
-174 -202 0
-200 -202 0
-81 -202 0
-17 -174 0
-17 -200 0
-17 -81 0
-174 -200 0
-81 -174 0
-81 -200 0
-20 -120 0
-20 -145 0
-16 -20 0
-20 -93 0
-120 -145 0
-16 -120 0
-93 -120 0
-16 -145 0
-93 -145 0
-16 -93 0
-94 -163 0
-94 -155 0
-94 -201 0
-94 -212 0
-155 -163 0
-163 -201 0
-163 -212 0
-155 -201 0
-155 -212 0
-201 -212 0
-18 -168 0
-18 -183 0
-15 -18 0
-18 -213 0
-168 -183 0
-15 -168 0
-168 -213 0
-15 -183 0
-183 -213 0
-15 -213 0
-88 -171 0
-88 -99 0
-14 -88 0
-88 -199 0
-99 -171 0
-14 -171 0
-171 -199 0
-14 -99 0
-99 -199 0
-14 -199 0
-13 -150 0
-13 -185 0
-13 -188 0
-13 -130 0
-13 -82 0
-150 -185 0
-150 -188 0
-130 -150 0
-82 -150 0
-185 -188 0
-130 -185 0
-82 -185 0
-130 -188 0
-82 -188 0
-82 -130 0
-12 -89 0
-12 -116 0
-12 -77 0
-12 -109 0
-12 -69 0
-89 -116 0
-77 -89 0
-89 -109 0
-69 -89 0
-77 -116 0
-109 -116 0
-69 -116 0
-77 -109 0
-69 -77 0
-69 -109 0
-176 -209 0
-176 -180 0
-176 -214 0
-105 -176 0
-176 -192 0
-180 -209 0
-209 -214 0
-105 -209 0
-192 -209 0
-180 -214 0
-105 -180 0
-180 -192 0
-105 -214 0
-192 -214 0
-105 -192 0
-10 -11 0
-9 -11 0
-11 -133 0
-11 -196 0
-8 -11 0
-9 -10 0
-10 -133 0
-10 -196 0
-8 -10 0
-9 -133 0
-9 -196 0
-8 -9 0
-133 -196 0
-8 -133 0
-8 -196 0
-100 -184 0
-7 -184 0
-184 -203 0
-6 -184 0
-19 -184 0
-7 -100 0
-100 -203 0
-6 -100 0
-19 -100 0
-7 -203 0
-6 -7 0
-7 -19 0
-6 -203 0
-19 -203 0
-6 -19 0
-5 -62 0
-58 -62 0
-4 -62 0
-3 -62 0
-56 -62 0
-5 -58 0
-4 -5 0
-3 -5 0
-5 -56 0
-4 -58 0
-3 -58 0
-56 -58 0
-3 -4 0
-4 -56 0
-3 -56 0
-12 -13 0
-13 -176 0
-11 -13 0
-13 -184 0
-13 -62 0
-12 -176 0
-11 -12 0
-12 -184 0
-12 -62 0
-11 -176 0
-176 -184 0
-62 -176 0
-11 -184 0
-11 -62 0
-62 -184 0
-89 -150 0
-150 -209 0
-10 -150 0
-100 -150 0
-5 -150 0
-89 -209 0
-10 -89 0
-89 -100 0
-5 -89 0
-10 -209 0
-100 -209 0
-5 -209 0
-10 -100 0
-5 -10 0
-5 -100 0
-116 -185 0
-180 -185 0
-9 -185 0
-7 -185 0
-58 -185 0
-116 -180 0
-9 -116 0
-7 -116 0
-58 -116 0
-9 -180 0
-7 -180 0
-58 -180 0
-7 -9 0
-9 -58 0
-7 -58 0
-77 -188 0
-188 -214 0
-133 -188 0
-188 -203 0
-4 -188 0
-77 -214 0
-77 -133 0
-77 -203 0
-4 -77 0
-133 -214 0
-203 -214 0
-4 -214 0
-133 -203 0
-4 -133 0
-4 -203 0
-109 -130 0
-105 -130 0
-130 -196 0
-6 -130 0
-3 -130 0
-105 -109 0
-109 -196 0
-6 -109 0
-3 -109 0
-105 -196 0
-6 -105 0
-3 -105 0
-6 -196 0
-3 -196 0
-3 -6 0
-69 -82 0
-82 -192 0
-8 -82 0
-19 -82 0
-56 -82 0
-69 -192 0
-8 -69 0
-19 -69 0
-56 -69 0
-8 -192 0
-19 -192 0
-56 -192 0
-8 -19 0
-8 -56 0
-19 -56 0
-28 -110 0
-96 -110 0
-85 -110 0
-28 -96 0
-28 -85 0
-85 -96 0
-79 -106 0
-79 -124 0
-79 -129 0
-106 -124 0
-106 -129 0
-124 -129 0
-2 -193 0
-1 -193 0
-172 -193 0
-1 -2 0
-2 -172 0
-1 -172 0
-151 -175 0
-175 -186 0
-175 -187 0
-151 -186 0
-151 -187 0
-186 -187 0
-79 -110 0
-110 -193 0
-110 -175 0
-79 -193 0
-79 -175 0
-175 -193 0
-28 -106 0
-2 -28 0
-28 -151 0
-2 -106 0
-106 -151 0
-2 -151 0
-96 -124 0
-1 -96 0
-96 -186 0
-1 -124 0
-124 -186 0
-1 -186 0
-85 -129 0
-85 -172 0
-85 -187 0
-129 -172 0
-129 -187 0
-172 -187 0
